          25
          40
           1          12           7
           2           7           7
           3           7           1
           4           5           1
           5           3           2
           6           6           2
           7           7           2
           8           5           2
           9           3           1
          10           6           1
          11          12           6
          12           9           6
          13          12           2
          14           7           2
          15          10           3
          16           4           1
          17           5           1
          18          16           3
          19           5           3
          20           4           2
          21           5           2
          22          10           3
          23           9           3
          24          16           3
          25           5           3
